<number of tasks>
50

<cycle time>
1000

<order strength>
0.195


<task times>
1 222
2 548
3 95
4 446
5 159
6 84
7 52
8 169
9 77
10 146
11 59
12 215
13 134
14 60
15 146
16 312
17 77
18 476
19 332
20 63
21 157
22 292
23 189
24 418
25 142
26 58
27 117
28 110
29 162
30 118
31 178
32 126
33 186
34 117
35 61
36 131
37 527
38 520
39 293
40 503
41 471
42 128
43 33
44 403
45 100
46 65
47 180
48 253
49 115
50 180

<precedence relations>
1,13
2,9
2,10
2,23
4,12
4,15
5,14
7,22
8,11
9,18
9,46
10,22
10,37
10,43
11,25
12,17
12,24
13,19
13,43
14,16
14,17
14,20
14,23
15,21
15,26
17,40
17,47
20,39
21,27
24,29
24,30
24,31
26,28
27,32
27,50
28,34
28,35
29,33
30,33
30,37
31,35
32,38
33,40
34,38
34,39
35,36
35,37
36,41
37,42
39,43
39,44
41,46
41,47
41,49
43,46
43,48
43,50
44,45

<end>
